(declare-const |K:40:41:44| Int)
(declare-const havoc Int)
(declare-const |j':35:42:45| Int)
(declare-const |i':34:43:46| Int)
(declare-const |havoc:2| Int)
(assert (and (= havoc 0) (= |havoc:2| 0)
               (or (not (and (<= (- |K:40:41:44|) 0) (<= |K:40:41:44| 0)))
                     (= (+ |j':35:42:45| (* -2 |K:40:41:44|) (- |havoc:2|)) 0))
               (or (not (<= (+ (- |K:40:41:44|) 1) 0))
                     (= (+ (* 5 |j':35:42:45|) (* -10 |K:40:41:44|)
                             (* -4 |havoc:2|) (* -2 havoc)) 0))
               (or (not (and (<= (- |K:40:41:44|) 0) (<= |K:40:41:44| 0)))
                     (= (+ |i':34:43:46| (- |K:40:41:44|) (- havoc)) 0))
               (or (not (<= (+ (- |K:40:41:44|) 1) 0))
                     (= (+ (* 5 |i':34:43:46|) (* -5 |K:40:41:44|)
                             (* -2 |havoc:2|) (- havoc)) 0))
               (or (and (= |K:40:41:44| 0)
                          (= (+ (- |j':35:42:45|) |havoc:2|) 0)
                          (= (+ (- |i':34:43:46|) havoc) 0))
                     (and (<= (+ (- |K:40:41:44|) 1) 0)
                            (= (+ |havoc:2| (* -2 havoc)) 0)
                            (<= (+ havoc -99) 0) (<= (- havoc) 0)
                            (= (+ (* 2 |i':34:43:46|) (- |j':35:42:45|)) 0)
                            (<= (+ |j':35:42:45| -200) 0)
                            (<= (+ (- |j':35:42:45|) 2) 0)))
               (<= (- |K:40:41:44|) 0) (<= (- |i':34:43:46|) 0)
               (<= (- |j':35:42:45|) 0)
               (= (+ (* 2 |i':34:43:46|) (- |j':35:42:45|)) 0)
               (<= (+ (- |i':34:43:46|) 100) 0)
               (not (= (+ |j':35:42:45| -200) 0))))
(check-sat)
